Products =  { "kluski" "capellini" "fettucine" };
Resources = { "flour" "eggs" };

consumption = [ [0.5, 0.2], [0.4, 0.4], [0.3, 0.6] ];
availability = [ 120, 150 ];
demand = [ 100, 200, 300 ];
insideCost = [ 0.6, 0.8, 0.3 ];
outsideCost  = [ 0.8, 0.9, 0.4 ];
maxOutsideProduction = 200; // contractual maximum amount that may be outsourced for any product.